11000011001100100001001001110101011100000000101100110110010100000000111110000010000001001111100010100000000101011000111000110111001000010011101110011110010001010011010001111111001101010111000001101001011101100000110001100111101000111000101111010001001110100101110100101111001000001000110001000010111010001101110001011101